100
32
6
17
13
32
5
14
1
4
23
7
4
3
3
1
2
27
8
7
23
1
12
2
15
22
16
25
3
10
10
22
3
5
31
27
1
32
5
13
6
25
11
3
2
21
3
17
22
16
10
4
7
8
27
17
15
7
32
20
3
25
26
31
6
31
5
27
6
32
31
17
28
21
25
25
24
5
16
7
4
31
25
11
21
8
1
7
26
6
7
32
2
3
12
14
2
24
8
29
3
6